(set-logic QF_S)
(declare-fun var0 () String)
(declare-fun var1 () String)
(declare-fun var2 () String)
(declare-fun var3 () Int)
(declare-fun var4 () String)
(declare-fun var5 () Int)
(declare-fun var6 () Int)
(declare-fun var7 () Int)
(assert (< (str.len var0) (str.len var1)))
(assert (str.prefixof (str.at var2 var3) (str.replace var4 var0 var1)))
(assert (str.in.re (str.replace var1 ">" var2) (re.* re.allchar)))
(assert (<= (str.len var1) (str.indexof (str.substr var2 var6 var7) (str.substr var1 var5 var7) (str.len var2))))
(check-sat)